NAME : XML100_3376_05
DIMENSION : 101
NB_CLUSTERS : 6
CLUSTERING_ALG : KMeans
CLUSTERING_PARAMS : k(5)
CLUSTERS
1 0
2 1 3 12 13 17 24 33 35 36 38 44 68 71 81 86 87 92 95 97
3 8 11 14 16 40 51 56 57 64 69 84 89 93
4 2 5 6 15 18 21 47 55 60 67 70 83 88 90
5 19 23 25 27 29 31 39 45 46 49 52 53 58 62 63 75 77 79 82 85 94 99
6 4 7 9 10 20 22 26 28 30 32 34 37 41 42 43 48 50 54 59 61 65 66 72 73 74 76 78 80 91 96 98 100
EOF